NAME : XML100_3146_21
DIMENSION : 101
NB_CLUSTERS : 13
CLUSTERING_ALG : KMedoids
CLUSTERING_PARAMS : k(12)
CLUSTERS
1 0
2 11 18 40 46 50
3 22 34 39 42 65 81 82 91 98
4 1 15 52 54 88
5 7 24 64 85
6 5 16 21 23 69 70 78 83 84 89 93
7 4 19 31 36 59 61 72 73 79 80 100
8 3 17 28 38 48 58 60 77
9 10 47 51 53 56 57 66 74 86 90
10 25 26 27 29 43 49 55 99
11 6 32 33 41 44 45 62 67 71 95
12 2 8 13 14 20 35 68 75 87 94 97
13 9 12 30 37 63 76 92 96
EOF